14° run output:
{
    "Function": "ClusterA500.tsp",
    "Problem dimension": [
        78,
        65,
        381,
        151,
        158,
        155,
        11,
        182,
        356,
        89,
        48,
        35,
        152,
        93,
        211,
        20,
        18,
        209,
        488,
        64,
        424,
        2,
        142,
        187,
        461,
        333,
        270,
        398,
        292,
        462,
        443,
        227,
        348,
        404,
        5,
        60,
        98,
        41,
        128,
        309,
        44,
        498,
        271,
        82,
        179,
        496,
        59,
        51,
        281,
        109,
        470,
        68,
        342,
        272,
        358,
        293,
        34,
        468,
        457,
        225,
        499,
        173,
        433,
        397,
        229,
        495,
        37,
        160,
        136,
        275,
        235,
        345,
        176,
        417,
        43,
        63,
        244,
        274,
        444,
        1,
        337,
        90,
        88,
        329,
        131,
        458,
        199,
        370,
        436,
        365,
        373,
        251,
        346,
        325,
        188,
        473,
        263,
        316,
        3,
        472,
        494,
        481,
        236,
        111,
        8,
        122,
        130,
        184,
        341,
        23,
        191,
        283,
        284,
        305,
        257,
        124,
        438,
        366,
        357,
        253,
        201,
        87,
        77,
        240,
        261,
        55,
        390,
        105,
        336,
        452,
        301,
        420,
        49,
        206,
        478,
        241,
        314,
        180,
        429,
        299,
        338,
        127,
        219,
        19,
        4,
        413,
        147,
        186,
        91,
        119,
        117,
        133,
        233,
        493,
        423,
        16,
        166,
        332,
        9,
        410,
        364,
        463,
        485,
        145,
        480,
        74,
        387,
        42,
        36,
        197,
        85,
        412,
        102,
        434,
        215,
        308,
        246,
        154,
        80,
        100,
        38,
        71,
        141,
        379,
        143,
        245,
        416,
        10,
        335,
        112,
        372,
        83,
        33,
        432,
        262,
        371,
        265,
        13,
        330,
        267,
        167,
        248,
        249,
        62,
        247,
        406,
        437,
        418,
        96,
        388,
        0,
        449,
        323,
        250,
        144,
        24,
        203,
        469,
        482,
        39,
        254,
        75,
        291,
        163,
        103,
        289,
        195,
        401,
        243,
        396,
        287,
        95,
        313,
        137,
        205,
        157,
        340,
        326,
        339,
        312,
        409,
        226,
        196,
        132,
        121,
        460,
        114,
        47,
        108,
        422,
        134,
        392,
        477,
        7,
        451,
        101,
        84,
        27,
        116,
        497,
        427,
        66,
        448,
        380,
        28,
        57,
        459,
        79,
        419,
        202,
        442,
        148,
        115,
        192,
        352,
        285,
        92,
        487,
        258,
        25,
        440,
        181,
        426,
        26,
        113,
        290,
        14,
        395,
        214,
        29,
        456,
        177,
        220,
        255,
        324,
        268,
        320,
        61,
        453,
        391,
        228,
        441,
        146,
        97,
        86,
        476,
        353,
        31,
        489,
        40,
        50,
        22,
        259,
        252,
        161,
        386,
        408,
        140,
        375,
        256,
        273,
        343,
        383,
        32,
        400,
        351,
        129,
        296,
        159,
        300,
        279,
        322,
        58,
        315,
        204,
        377,
        465,
        431,
        490,
        363,
        156,
        126,
        374,
        72,
        402,
        304,
        149,
        52,
        217,
        307,
        399,
        21,
        69,
        139,
        344,
        430,
        445,
        190,
        53,
        67,
        30,
        169,
        193,
        123,
        223,
        491,
        212,
        232,
        104,
        153,
        81,
        276,
        475,
        278,
        282,
        150,
        138,
        394,
        435,
        110,
        298,
        369,
        198,
        17,
        194,
        46,
        280,
        183,
        165,
        331,
        242,
        170,
        297,
        94,
        294,
        207,
        106,
        466,
        403,
        407,
        303,
        359,
        389,
        269,
        222,
        492,
        164,
        6,
        238,
        393,
        277,
        237,
        125,
        76,
        450,
        208,
        421,
        486,
        428,
        368,
        317,
        328,
        218,
        174,
        200,
        234,
        479,
        54,
        446,
        347,
        172,
        385,
        288,
        306,
        411,
        213,
        382,
        454,
        464,
        321,
        378,
        302,
        439,
        239,
        334,
        185,
        162,
        355,
        414,
        224,
        367,
        264,
        350,
        319,
        376,
        118,
        99,
        471,
        384,
        70,
        447,
        135,
        474,
        362,
        189,
        230,
        231,
        327,
        455,
        216,
        405,
        56,
        73,
        295,
        15,
        175,
        415,
        318,
        349,
        484,
        354,
        467,
        221,
        178,
        168,
        171,
        266,
        260,
        425,
        360,
        483,
        120,
        12,
        107,
        45,
        361,
        286,
        210,
        311,
        310
    ],
    "Global Optimum": 0,
    "Algorithm": "Genetic algorithm",
    "Parameters": {
        "population": 30,
        "offspring": 30,
        "mutation probability": 0.002,
        "crossover probability": 0.9
    },
    "Fitness": 640958,
    "Solution": [
        78,
        65,
        381,
        151,
        158,
        155,
        11,
        182,
        356,
        89,
        48,
        35,
        152,
        93,
        211,
        20,
        18,
        209,
        488,
        64,
        424,
        2,
        142,
        187,
        461,
        333,
        270,
        398,
        292,
        462,
        443,
        227,
        348,
        404,
        5,
        60,
        98,
        41,
        128,
        309,
        44,
        498,
        271,
        82,
        179,
        496,
        59,
        51,
        281,
        109,
        470,
        68,
        342,
        272,
        358,
        293,
        34,
        468,
        457,
        225,
        499,
        173,
        433,
        397,
        229,
        495,
        37,
        160,
        136,
        275,
        235,
        345,
        176,
        417,
        43,
        63,
        244,
        274,
        444,
        1,
        337,
        90,
        88,
        329,
        131,
        458,
        199,
        370,
        436,
        365,
        373,
        251,
        346,
        325,
        188,
        473,
        263,
        316,
        3,
        472,
        494,
        481,
        236,
        111,
        8,
        122,
        130,
        184,
        341,
        23,
        191,
        283,
        284,
        305,
        257,
        124,
        438,
        366,
        357,
        253,
        201,
        87,
        77,
        240,
        261,
        55,
        390,
        105,
        336,
        452,
        301,
        420,
        49,
        206,
        478,
        241,
        314,
        180,
        429,
        299,
        338,
        127,
        219,
        19,
        4,
        413,
        147,
        186,
        91,
        119,
        117,
        133,
        233,
        493,
        423,
        16,
        166,
        332,
        9,
        410,
        364,
        463,
        485,
        145,
        480,
        74,
        387,
        42,
        36,
        197,
        85,
        412,
        102,
        434,
        215,
        308,
        246,
        154,
        80,
        100,
        38,
        71,
        141,
        379,
        143,
        245,
        416,
        10,
        335,
        112,
        372,
        83,
        33,
        432,
        262,
        371,
        265,
        13,
        330,
        267,
        167,
        248,
        249,
        62,
        247,
        406,
        437,
        418,
        96,
        388,
        0,
        449,
        323,
        250,
        144,
        24,
        203,
        469,
        482,
        39,
        254,
        75,
        291,
        163,
        103,
        289,
        195,
        401,
        243,
        396,
        287,
        95,
        313,
        137,
        205,
        157,
        340,
        326,
        339,
        312,
        409,
        226,
        196,
        132,
        121,
        460,
        114,
        47,
        108,
        422,
        134,
        392,
        477,
        7,
        451,
        101,
        84,
        27,
        116,
        497,
        427,
        66,
        448,
        380,
        28,
        57,
        459,
        79,
        419,
        202,
        442,
        148,
        115,
        192,
        352,
        285,
        92,
        487,
        258,
        25,
        440,
        181,
        426,
        26,
        113,
        290,
        14,
        395,
        214,
        29,
        456,
        177,
        220,
        255,
        324,
        268,
        320,
        61,
        453,
        391,
        228,
        441,
        146,
        97,
        86,
        476,
        353,
        31,
        489,
        40,
        50,
        22,
        259,
        252,
        161,
        386,
        408,
        140,
        375,
        256,
        273,
        343,
        383,
        32,
        400,
        351,
        129,
        296,
        159,
        300,
        279,
        322,
        58,
        315,
        204,
        377,
        465,
        431,
        490,
        363,
        156,
        126,
        374,
        72,
        402,
        304,
        149,
        52,
        217,
        307,
        399,
        21,
        69,
        139,
        344,
        430,
        445,
        190,
        53,
        67,
        30,
        169,
        193,
        123,
        223,
        491,
        212,
        232,
        104,
        153,
        81,
        276,
        475,
        278,
        282,
        150,
        138,
        394,
        435,
        110,
        298,
        369,
        198,
        17,
        194,
        46,
        280,
        183,
        165,
        331,
        242,
        170,
        297,
        94,
        294,
        207,
        106,
        466,
        403,
        407,
        303,
        359,
        389,
        269,
        222,
        492,
        164,
        6,
        238,
        393,
        277,
        237,
        125,
        76,
        450,
        208,
        421,
        486,
        428,
        368,
        317,
        328,
        218,
        174,
        200,
        234,
        479,
        54,
        446,
        347,
        172,
        385,
        288,
        306,
        411,
        213,
        382,
        454,
        464,
        321,
        378,
        302,
        439,
        239,
        334,
        185,
        162,
        355,
        414,
        224,
        367,
        264,
        350,
        319,
        376,
        118,
        99,
        471,
        384,
        70,
        447,
        135,
        474,
        362,
        189,
        230,
        231,
        327,
        455,
        216,
        405,
        56,
        73,
        295,
        15,
        175,
        415,
        318,
        349,
        484,
        354,
        467,
        221,
        178,
        168,
        171,
        266,
        260,
        425,
        360,
        483,
        120,
        12,
        107,
        45,
        361,
        286,
        210,
        311,
        310
    ],
    "Nb of functions evaluations": 200010,
    "Computational time in seconds": 934.9205114841461,
    "Stopping criterion in evaluations": 200000
}